************************************************************************
file with basedata            : md343_.bas
initial value random generator: 27934
************************************************************************
projects                      :  1
jobs (incl. supersource/sink ):  22
horizon                       :  159
RESOURCES
  - renewable                 :  2   R
  - nonrenewable              :  2   N
  - doubly constrained        :  0   D
************************************************************************
PROJECT INFORMATION:
pronr.  #jobs rel.date duedate tardcost  MPM-Time
    1     20      0       25        1       25
************************************************************************
PRECEDENCE RELATIONS:
jobnr.    #modes  #successors   successors
   1        1          3           2   3   4
   2        3          3           7  13  17
   3        3          3           6   9  11
   4        3          3           5  15  21
   5        3          3          13  14  18
   6        3          1           8
   7        3          3          12  15  20
   8        3          3          10  12  17
   9        3          2          14  16
  10        3          2          13  20
  11        3          3          14  16  18
  12        3          1          16
  13        3          1          19
  14        3          1          17
  15        3          1          18
  16        3          2          19  21
  17        3          1          20
  18        3          1          19
  19        3          1          22
  20        3          1          22
  21        3          1          22
  22        1          0        
************************************************************************
REQUESTS/DURATIONS:
jobnr. mode duration  R 1  R 2  N 1  N 2
------------------------------------------------------------------------
  1      1     0       0    0    0    0
  2      1     5       7    9    0    2
         2     5       8    9    6    0
         3     8       7    9    5    0
  3      1     2       3   10    8    0
         2     4       2    7    4    0
         3     8       2    5    0    9
  4      1     1       7    8    8    0
         2     7       6    7    8    0
         3     9       6    7    0    6
  5      1     1       7    3    0    7
         2     2       3    3    0    5
         3     4       1    2    0    4
  6      1     3       4    6    0    6
         2     9       4    4    1    0
         3     9       3    4    0    6
  7      1     1      10    5    0    5
         2     6       9    4    0    5
         3     6      10    3    7    0
  8      1     3       3    5    0   10
         2     4       3    4    0   10
         3     9       2    3    6    0
  9      1     2       8    4    9    0
         2     6       7    4    9    0
         3     9       7    3    0    2
 10      1     4      10    6    0    8
         2     6       7    6    6    0
         3     8       3    5    0    8
 11      1     3       6   10    5    0
         2     5       5   10    0    9
         3     6       4    9    0    7
 12      1     5      10    7    7    0
         2     8       8    4    4    0
         3     9       3    4    0    6
 13      1     3      10    3    5    0
         2    10      10    2    0    9
         3    10       9    1    3    0
 14      1     2       9    6    4    0
         2     3       8    5    0    3
         3     4       6    5    0    1
 15      1     4       2    8    0    6
         2     6       2    8    8    0
         3     9       2    8    6    0
 16      1     8      10    8    0    5
         2     9       4    6    0    3
         3     9       3    7    0    4
 17      1     2       5    5    8    0
         2     6       5    4    7    0
         3     9       5    3    0    9
 18      1     1       4    9    7    0
         2     6       4    6    4    0
         3     7       4    1    4    0
 19      1     1       6    5    2    0
         2     4       6    4    1    0
         3     9       6    1    0    7
 20      1     3       4    8    0    5
         2     9       2    5    0    5
         3    10       2    5    0    4
 21      1     4       8    3    0    3
         2     7       8    3    9    0
         3     7       8    2    0    3
 22      1     0       0    0    0    0
************************************************************************
RESOURCEAVAILABILITIES:
  R 1  R 2  N 1  N 2
   23   24   81   91
************************************************************************
MAXIMAL LAGS:
from  to  type  delay
    1   22   ES      0
    1    2   ES      0
    2   22   ES      0
    1    3   ES      0
    3   22   ES      0
    1    4   ES      0
    4   22   ES      0
    1    5   ES      0
    5   22   ES      0
    1    6   ES      0
    6   22   ES      0
    1    7   ES      0
    7   22   ES      0
    1    8   ES      0
    8   22   ES      0
    1    9   ES      0
    9   22   ES      0
    1   10   ES      0
   10   22   ES      0
    1   11   ES      0
   11   22   ES      0
    1   12   ES      0
   12   22   ES      0
    1   13   ES      0
   13   22   ES      0
    1   14   ES      0
   14   22   ES      0
    1   15   ES      0
   15   22   ES      0
    1   16   ES      0
   16   22   ES      0
    1   17   ES      0
   17   22   ES      0
    1   18   ES      0
   18   22   ES      0
    1   19   ES      0
   19   22   ES      0
    1   20   ES      0
   20   22   ES      0
    1   21   ES      0
   21   22   ES      0
    1   22   ES      0
    2    7   SS     -7
    2    7   SE      9
    2    7   ES     -9
    2    7   EE      0
    2   13   SS      6
    2   13   SE      8
    2   13   ES      1
    2   13   EE      1
    2   17   SS      1
    2   17   SE     -6
    2   17   ES      8
    2   17   EE    -12
    3    6   SS      7
    3    6   SE     -5
    3    6   ES     -8
    3    6   EE      7
    3    9   SS      7
    3    9   SE      4
    3    9   ES    -10
    3    9   EE      7
    3   11   SS      6
    3   11   SE     11
    3   11   ES      1
    3   11   EE    -12
    4    5   SS     -2
    4    5   SE      7
    4    5   ES     -5
    4    5   EE     -7
    4   15   SS      6
    4   15   SE      8
    4   15   ES      3
    4   15   EE      9
    4   21   SS    -10
    4   21   SE     -1
    4   21   ES    -12
    4   21   EE     11
    5   13   SS      7
    5   13   SE      8
   13    5   SE      0
    5   13   ES      0
    5   13   EE      5
    5   14   SS      4
    5   14   SE     -6
    5   14   ES     -7
    5   14   EE      2
    5   18   SS     -1
    5   18   SE     11
    5   18   ES     -5
    5   18   EE     -7
    6    8   SS      3
    6    8   SE     10
    6    8   ES     -6
    6    8   EE     -2
    7   12   SS     -8
    7   12   SE     -3
    7   12   ES    -10
    7   12   EE    -12
    7   15   SS     -6
    7   15   SE      6
    7   15   ES      2
    7   15   EE      2
    7   20   SS     -5
    7   20   SE      9
    7   20   ES      7
    7   20   EE      2
    8   10   SS     -5
    8   10   SE     -7
    8   10   ES      2
    8   10   EE      4
    8   12   SS      8
    8   12   SE     -9
    8   12   ES      7
    8   12   EE     -2
    8   17   SS     -7
    8   17   SE     -5
    8   17   ES      2
    8   17   EE     11
    9   14   SS    -10
    9   14   SE    -12
    9   14   ES     11
    9   14   EE    -11
    9   16   SS      9
    9   16   SE      9
    9   16   ES      1
    9   16   EE      4
   10   13   SS      3
   10   13   SE      0
   10   13   ES    -10
   10   13   EE      1
   10   20   SS     -4
   10   20   SE     10
   10   20   ES      5
   10   20   EE     -9
   11   14   SS     10
   11   14   SE     12
   11   14   ES      7
   11   14   EE      8
   11   16   SS      5
   11   16   SE     10
   11   16   ES    -12
   11   16   EE      2
   11   18   SS      3
   11   18   SE     11
   11   18   ES    -11
   11   18   EE     -3
   12   16   SS      0
   12   16   SE     11
   12   16   ES     12
   12   16   EE    -11
   13   19   SS     -1
   13   19   SE      0
   13   19   ES     10
   13   19   EE      4
   14   17   SS      8
   14   17   SE      8
   14   17   ES      2
   14   17   EE      1
   15   18   SS     -9
   15   18   SE     -9
   15   18   ES     -8
   15   18   EE     -4
   16   19   SS     12
   16   19   SE      6
   16   19   ES     12
   16   19   EE     -9
   16   21   SS     11
   16   21   SE     -7
   16   21   ES     -1
   16   21   EE      1
   17   20   SS      9
   17   20   SE     -2
   17   20   ES     -8
   17   20   EE     -5
   18   19   SS      3
   18   19   SE     -6
   18   19   ES     -4
   18   19   EE     -9
************************************************************************
